p cnf 12 50 
5 -4 10 0
9 1 10 0
-7 10 5 0
-9 11 -10 0
10 -9 4 0
-4 6 -3 0
-10 3 -9 0
-4 -7 8 0
10 -7 9 0
-2 -7 -4 0
7 2 5 0
-4 -1 -2 0
-8 -11 9 0
4 -2 11 0
-8 11 -12 0
12 -1 11 0
9 -5 -2 0
-11 3 2 0
11 9 -7 0
3 7 10 0
-3 7 -10 0
-7 -3 12 0
-7 -10 -4 0
-11 -5 -4 0
9 1 10 0
-6 -3 5 0
5 12 7 0
3 11 -12 0
2 3 6 0
-2 -3 7 0
-6 5 10 0
1 -3 8 0
9 4 3 0
-1 7 -2 0
-8 -2 -12 0
11 -5 -4 0
-7 9 -4 0
-2 1 8 0
-5 1 3 0
-6 2 9 0
-9 -3 -6 0
3 -8 5 0
-3 4 -2 0
1 -5 9 0
9 -10 -5 0
2 3 -1 0
2 -6 -8 0
-4 6 -1 0
1 -6 4 0
-11 6 12 0
